# Solution for model probrema
# Objective value = 2.6048565672031519e+05
X_0_14_10_21 0
X_0_14_10_22 0
X_0_14_10_23 0
X_0_14_11_21 0
X_0_14_11_22 0
X_0_14_11_23 0
X_0_14_12_21 0
X_0_14_12_22 0
X_0_14_12_23 0
X_0_14_13_21 0
X_0_14_13_22 479
X_0_14_13_23 0
X_0_15_10_21 0
X_0_15_10_22 0
X_0_15_10_23 0
X_0_15_11_21 0
X_0_15_11_22 0
X_0_15_11_23 0
X_0_15_12_21 0
X_0_15_12_22 0
X_0_15_12_23 0
X_0_15_13_21 0
X_0_15_13_22 0
X_0_15_13_23 0
X_0_16_10_21 0
X_0_16_10_22 0
X_0_16_10_23 0
X_0_16_11_21 0
X_0_16_11_22 0
X_0_16_11_23 0
X_0_16_12_21 0
X_0_16_12_22 0
X_0_16_12_23 0
X_0_16_13_21 0
X_0_16_13_22 0
X_0_16_13_23 0
X_0_17_10_21 0
X_0_17_10_22 0
X_0_17_10_23 0
X_0_17_11_21 0
X_0_17_11_22 0
X_0_17_11_23 0
X_0_17_12_21 0
X_0_17_12_22 0
X_0_17_12_23 0
X_0_17_13_21 0
X_0_17_13_22 0
X_0_17_13_23 0
X_0_18_10_21 0
X_0_18_10_22 0
X_0_18_10_23 0
X_0_18_11_21 0
X_0_18_11_22 0
X_0_18_11_23 0
X_0_18_12_21 0
X_0_18_12_22 0
X_0_18_12_23 0
X_0_18_13_21 0
X_0_18_13_22 0
X_0_18_13_23 0
X_0_19_10_21 0
X_0_19_10_22 0
X_0_19_10_23 0
X_0_19_11_21 0
X_0_19_11_22 0
X_0_19_11_23 0
X_0_19_12_21 0
X_0_19_12_22 0
X_0_19_12_23 0
X_0_19_13_21 0
X_0_19_13_22 0
X_0_19_13_23 0
X_0_20_10_21 0
X_0_20_10_22 0
X_0_20_10_23 0
X_0_20_11_21 0
X_0_20_11_22 0
X_0_20_11_23 0
X_0_20_12_21 0
X_0_20_12_22 0
X_0_20_12_23 0
X_0_20_13_21 0
X_0_20_13_22 0
X_0_20_13_23 0
X_1_14_10_21 0
X_1_14_10_22 0
X_1_14_10_23 0
X_1_14_11_21 0
X_1_14_11_22 0
X_1_14_11_23 0
X_1_14_12_21 0
X_1_14_12_22 0
X_1_14_12_23 0
X_1_14_13_21 0
X_1_14_13_22 0
X_1_14_13_23 0
X_1_15_10_21 0
X_1_15_10_22 0
X_1_15_10_23 0
X_1_15_11_21 0
X_1_15_11_22 0
X_1_15_11_23 0
X_1_15_12_21 0
X_1_15_12_22 0
X_1_15_12_23 0
X_1_15_13_21 26
X_1_15_13_22 0
X_1_15_13_23 0
X_1_16_10_21 0
X_1_16_10_22 0
X_1_16_10_23 0
X_1_16_11_21 0
X_1_16_11_22 0
X_1_16_11_23 0
X_1_16_12_21 0
X_1_16_12_22 0
X_1_16_12_23 0
X_1_16_13_21 0
X_1_16_13_22 0
X_1_16_13_23 0
X_1_17_10_21 0
X_1_17_10_22 0
X_1_17_10_23 0
X_1_17_11_21 0
X_1_17_11_22 0
X_1_17_11_23 0
X_1_17_12_21 0
X_1_17_12_22 0
X_1_17_12_23 0
X_1_17_13_21 0
X_1_17_13_22 0
X_1_17_13_23 0
X_1_18_10_21 0
X_1_18_10_22 0
X_1_18_10_23 0
X_1_18_11_21 0
X_1_18_11_22 0
X_1_18_11_23 0
X_1_18_12_21 80
X_1_18_12_22 189
X_1_18_12_23 0
X_1_18_13_21 0
X_1_18_13_22 0
X_1_18_13_23 0
X_1_19_10_21 0
X_1_19_10_22 0
X_1_19_10_23 0
X_1_19_11_21 0
X_1_19_11_22 0
X_1_19_11_23 0
X_1_19_12_21 0
X_1_19_12_22 0
X_1_19_12_23 0
X_1_19_13_21 0
X_1_19_13_22 0
X_1_19_13_23 0
X_1_20_10_21 0
X_1_20_10_22 0
X_1_20_10_23 0
X_1_20_11_21 0
X_1_20_11_22 0
X_1_20_11_23 0
X_1_20_12_21 0
X_1_20_12_22 0
X_1_20_12_23 0
X_1_20_13_21 0
X_1_20_13_22 0
X_1_20_13_23 0
X_2_14_10_21 0
X_2_14_10_22 0
X_2_14_10_23 0
X_2_14_11_21 0
X_2_14_11_22 0
X_2_14_11_23 0
X_2_14_12_21 0
X_2_14_12_22 0
X_2_14_12_23 0
X_2_14_13_21 0
X_2_14_13_22 0
X_2_14_13_23 0
X_2_15_10_21 0
X_2_15_10_22 0
X_2_15_10_23 0
X_2_15_11_21 0
X_2_15_11_22 0
X_2_15_11_23 0
X_2_15_12_21 0
X_2_15_12_22 0
X_2_15_12_23 0
X_2_15_13_21 0
X_2_15_13_22 0
X_2_15_13_23 366.5
X_2_16_10_21 0
X_2_16_10_22 0
X_2_16_10_23 0
X_2_16_11_21 0
X_2_16_11_22 0
X_2_16_11_23 0
X_2_16_12_21 0
X_2_16_12_22 0
X_2_16_12_23 0
X_2_16_13_21 0
X_2_16_13_22 0
X_2_16_13_23 0
X_2_17_10_21 0
X_2_17_10_22 0
X_2_17_10_23 0
X_2_17_11_21 0
X_2_17_11_22 0
X_2_17_11_23 0
X_2_17_12_21 0
X_2_17_12_22 0
X_2_17_12_23 0
X_2_17_13_21 220
X_2_17_13_22 0
X_2_17_13_23 0
X_2_18_10_21 0
X_2_18_10_22 0
X_2_18_10_23 0
X_2_18_11_21 0
X_2_18_11_22 0
X_2_18_11_23 0
X_2_18_12_21 0
X_2_18_12_22 0
X_2_18_12_23 0
X_2_18_13_21 34.5
X_2_18_13_22 0
X_2_18_13_23 0
X_2_19_10_21 0
X_2_19_10_22 0
X_2_19_10_23 0
X_2_19_11_21 0
X_2_19_11_22 0
X_2_19_11_23 0
X_2_19_12_21 0
X_2_19_12_22 0
X_2_19_12_23 0
X_2_19_13_21 0
X_2_19_13_22 0
X_2_19_13_23 0
X_2_20_10_21 0
X_2_20_10_22 0
X_2_20_10_23 0
X_2_20_11_21 0
X_2_20_11_22 0
X_2_20_11_23 0
X_2_20_12_21 0
X_2_20_12_22 0
X_2_20_12_23 0
X_2_20_13_21 0
X_2_20_13_22 0
X_2_20_13_23 0
X_3_14_10_21 0
X_3_14_10_22 0
X_3_14_10_23 0
X_3_14_11_21 0
X_3_14_11_22 0
X_3_14_11_23 0
X_3_14_12_21 0
X_3_14_12_22 0
X_3_14_12_23 0
X_3_14_13_21 0
X_3_14_13_22 0
X_3_14_13_23 294
X_3_15_10_21 0
X_3_15_10_22 0
X_3_15_10_23 0
X_3_15_11_21 0
X_3_15_11_22 0
X_3_15_11_23 0
X_3_15_12_21 0
X_3_15_12_22 0
X_3_15_12_23 0
X_3_15_13_21 162.5
X_3_15_13_22 0
X_3_15_13_23 0
X_3_16_10_21 0
X_3_16_10_22 0
X_3_16_10_23 0
X_3_16_11_21 0
X_3_16_11_22 0
X_3_16_11_23 0
X_3_16_12_21 0
X_3_16_12_22 0
X_3_16_12_23 0
X_3_16_13_21 0
X_3_16_13_22 0
X_3_16_13_23 0
X_3_17_10_21 0
X_3_17_10_22 0
X_3_17_10_23 0
X_3_17_11_21 0
X_3_17_11_22 0
X_3_17_11_23 0
X_3_17_12_21 0
X_3_17_12_22 0
X_3_17_12_23 0
X_3_17_13_21 0
X_3_17_13_22 0
X_3_17_13_23 0
X_3_18_10_21 0
X_3_18_10_22 0
X_3_18_10_23 0
X_3_18_11_21 0
X_3_18_11_22 0
X_3_18_11_23 0
X_3_18_12_21 0
X_3_18_12_22 0
X_3_18_12_23 0
X_3_18_13_21 0
X_3_18_13_22 0
X_3_18_13_23 332.5
X_3_19_10_21 0
X_3_19_10_22 0
X_3_19_10_23 0
X_3_19_11_21 0
X_3_19_11_22 0
X_3_19_11_23 0
X_3_19_12_21 0
X_3_19_12_22 0
X_3_19_12_23 0
X_3_19_13_21 0
X_3_19_13_22 0
X_3_19_13_23 0
X_3_20_10_21 0
X_3_20_10_22 0
X_3_20_10_23 0
X_3_20_11_21 0
X_3_20_11_22 0
X_3_20_11_23 0
X_3_20_12_21 0
X_3_20_12_22 0
X_3_20_12_23 0
X_3_20_13_21 0
X_3_20_13_22 0
X_3_20_13_23 0
X_4_14_10_21 0
X_4_14_10_22 0
X_4_14_10_23 0
X_4_14_11_21 0
X_4_14_11_22 0
X_4_14_11_23 0
X_4_14_12_21 0
X_4_14_12_22 0
X_4_14_12_23 0
X_4_14_13_21 0
X_4_14_13_22 0
X_4_14_13_23 0
X_4_15_10_21 0
X_4_15_10_22 0
X_4_15_10_23 0
X_4_15_11_21 0
X_4_15_11_22 0
X_4_15_11_23 0
X_4_15_12_21 0
X_4_15_12_22 0
X_4_15_12_23 0
X_4_15_13_21 0
X_4_15_13_22 0
X_4_15_13_23 0
X_4_16_10_21 0
X_4_16_10_22 0
X_4_16_10_23 0
X_4_16_11_21 0
X_4_16_11_22 0
X_4_16_11_23 0
X_4_16_12_21 0
X_4_16_12_22 0
X_4_16_12_23 0
X_4_16_13_21 0
X_4_16_13_22 0
X_4_16_13_23 0
X_4_17_10_21 0
X_4_17_10_22 0
X_4_17_10_23 465
X_4_17_11_21 0
X_4_17_11_22 0
X_4_17_11_23 0
X_4_17_12_21 0
X_4_17_12_22 0
X_4_17_12_23 0
X_4_17_13_21 0
X_4_17_13_22 0
X_4_17_13_23 0
X_4_18_10_21 0
X_4_18_10_22 0
X_4_18_10_23 0
X_4_18_11_21 0
X_4_18_11_22 0
X_4_18_11_23 0
X_4_18_12_21 0
X_4_18_12_22 0
X_4_18_12_23 0
X_4_18_13_21 0
X_4_18_13_22 0
X_4_18_13_23 0
X_4_19_10_21 0
X_4_19_10_22 0
X_4_19_10_23 0
X_4_19_11_21 0
X_4_19_11_22 0
X_4_19_11_23 0
X_4_19_12_21 0
X_4_19_12_22 0
X_4_19_12_23 0
X_4_19_13_21 0
X_4_19_13_22 0
X_4_19_13_23 0
X_4_20_10_21 0
X_4_20_10_22 0
X_4_20_10_23 0
X_4_20_11_21 0
X_4_20_11_22 0
X_4_20_11_23 0
X_4_20_12_21 0
X_4_20_12_22 0
X_4_20_12_23 0
X_4_20_13_21 0
X_4_20_13_22 0
X_4_20_13_23 0
X_5_14_10_21 0
X_5_14_10_22 0
X_5_14_10_23 0
X_5_14_11_21 0
X_5_14_11_22 0
X_5_14_11_23 0
X_5_14_12_21 0
X_5_14_12_22 0
X_5_14_12_23 0
X_5_14_13_21 0
X_5_14_13_22 0
X_5_14_13_23 0
X_5_15_10_21 0
X_5_15_10_22 0
X_5_15_10_23 0
X_5_15_11_21 0
X_5_15_11_22 0
X_5_15_11_23 0
X_5_15_12_21 0
X_5_15_12_22 0
X_5_15_12_23 0
X_5_15_13_21 0
X_5_15_13_22 0
X_5_15_13_23 0
X_5_16_10_21 0
X_5_16_10_22 0
X_5_16_10_23 0
X_5_16_11_21 0
X_5_16_11_22 0
X_5_16_11_23 0
X_5_16_12_21 0
X_5_16_12_22 0
X_5_16_12_23 0
X_5_16_13_21 0
X_5_16_13_22 0
X_5_16_13_23 0
X_5_17_10_21 0
X_5_17_10_22 0
X_5_17_10_23 0
X_5_17_11_21 0
X_5_17_11_22 0
X_5_17_11_23 0
X_5_17_12_21 0
X_5_17_12_22 0
X_5_17_12_23 0
X_5_17_13_21 0
X_5_17_13_22 0
X_5_17_13_23 0
X_5_18_10_21 0
X_5_18_10_22 0
X_5_18_10_23 0
X_5_18_11_21 0
X_5_18_11_22 0
X_5_18_11_23 0
X_5_18_12_21 0
X_5_18_12_22 0
X_5_18_12_23 0
X_5_18_13_21 0
X_5_18_13_22 0
X_5_18_13_23 0
X_5_19_10_21 0
X_5_19_10_22 0
X_5_19_10_23 0
X_5_19_11_21 0
X_5_19_11_22 0
X_5_19_11_23 0
X_5_19_12_21 0
X_5_19_12_22 0
X_5_19_12_23 0
X_5_19_13_21 0
X_5_19_13_22 0
X_5_19_13_23 0
X_5_20_10_21 0
X_5_20_10_22 0
X_5_20_10_23 0
X_5_20_11_21 0
X_5_20_11_22 530
X_5_20_11_23 0
X_5_20_12_21 0
X_5_20_12_22 0
X_5_20_12_23 0
X_5_20_13_21 0
X_5_20_13_22 0
X_5_20_13_23 0
X_6_14_10_21 0
X_6_14_10_22 0
X_6_14_10_23 0
X_6_14_11_21 0
X_6_14_11_22 0
X_6_14_11_23 0
X_6_14_12_21 0
X_6_14_12_22 0
X_6_14_12_23 0
X_6_14_13_21 0
X_6_14_13_22 0
X_6_14_13_23 0
X_6_15_10_21 0
X_6_15_10_22 0
X_6_15_10_23 0
X_6_15_11_21 0
X_6_15_11_22 0
X_6_15_11_23 0
X_6_15_12_21 0
X_6_15_12_22 0
X_6_15_12_23 0
X_6_15_13_21 0
X_6_15_13_22 891
X_6_15_13_23 0
X_6_16_10_21 0
X_6_16_10_22 0
X_6_16_10_23 0
X_6_16_11_21 0
X_6_16_11_22 0
X_6_16_11_23 0
X_6_16_12_21 0
X_6_16_12_22 0
X_6_16_12_23 0
X_6_16_13_21 0
X_6_16_13_22 0
X_6_16_13_23 0
X_6_17_10_21 0
X_6_17_10_22 0
X_6_17_10_23 0
X_6_17_11_21 0
X_6_17_11_22 0
X_6_17_11_23 0
X_6_17_12_21 0
X_6_17_12_22 0
X_6_17_12_23 0
X_6_17_13_21 0
X_6_17_13_22 0
X_6_17_13_23 0
X_6_18_10_21 0
X_6_18_10_22 0
X_6_18_10_23 0
X_6_18_11_21 0
X_6_18_11_22 0
X_6_18_11_23 0
X_6_18_12_21 0
X_6_18_12_22 0
X_6_18_12_23 0
X_6_18_13_21 0
X_6_18_13_22 0
X_6_18_13_23 0
X_6_19_10_21 0
X_6_19_10_22 0
X_6_19_10_23 0
X_6_19_11_21 0
X_6_19_11_22 0
X_6_19_11_23 0
X_6_19_12_21 0
X_6_19_12_22 0
X_6_19_12_23 0
X_6_19_13_21 0
X_6_19_13_22 0
X_6_19_13_23 0
X_6_20_10_21 0
X_6_20_10_22 0
X_6_20_10_23 0
X_6_20_11_21 0
X_6_20_11_22 0
X_6_20_11_23 0
X_6_20_12_21 0
X_6_20_12_22 0
X_6_20_12_23 0
X_6_20_13_21 0
X_6_20_13_22 0
X_6_20_13_23 0
X_7_14_10_21 0
X_7_14_10_22 0
X_7_14_10_23 0
X_7_14_11_21 0
X_7_14_11_22 0
X_7_14_11_23 0
X_7_14_12_21 0
X_7_14_12_22 0
X_7_14_12_23 0
X_7_14_13_21 0
X_7_14_13_22 0
X_7_14_13_23 0
X_7_15_10_21 0
X_7_15_10_22 0
X_7_15_10_23 0
X_7_15_11_21 50
X_7_15_11_22 0
X_7_15_11_23 0
X_7_15_12_21 0
X_7_15_12_22 0
X_7_15_12_23 0
X_7_15_13_21 0
X_7_15_13_22 0
X_7_15_13_23 0
X_7_16_10_21 0
X_7_16_10_22 0
X_7_16_10_23 0
X_7_16_11_21 339
X_7_16_11_22 0
X_7_16_11_23 0
X_7_16_12_21 0
X_7_16_12_22 0
X_7_16_12_23 0
X_7_16_13_21 0
X_7_16_13_22 0
X_7_16_13_23 0
X_7_17_10_21 0
X_7_17_10_22 0
X_7_17_10_23 0
X_7_17_11_21 0
X_7_17_11_22 0
X_7_17_11_23 0
X_7_17_12_21 0
X_7_17_12_22 0
X_7_17_12_23 0
X_7_17_13_21 0
X_7_17_13_22 0
X_7_17_13_23 0
X_7_18_10_21 0
X_7_18_10_22 0
X_7_18_10_23 0
X_7_18_11_21 0
X_7_18_11_22 0
X_7_18_11_23 0
X_7_18_12_21 0
X_7_18_12_22 0
X_7_18_12_23 0
X_7_18_13_21 228
X_7_18_13_22 0
X_7_18_13_23 0
X_7_19_10_21 0
X_7_19_10_22 0
X_7_19_10_23 0
X_7_19_11_21 0
X_7_19_11_22 0
X_7_19_11_23 0
X_7_19_12_21 0
X_7_19_12_22 0
X_7_19_12_23 0
X_7_19_13_21 0
X_7_19_13_22 0
X_7_19_13_23 0
X_7_20_10_21 0
X_7_20_10_22 0
X_7_20_10_23 0
X_7_20_11_21 243
X_7_20_11_22 0
X_7_20_11_23 0
X_7_20_12_21 0
X_7_20_12_22 0
X_7_20_12_23 0
X_7_20_13_21 0
X_7_20_13_22 0
X_7_20_13_23 0
X_8_14_10_21 0
X_8_14_10_22 0
X_8_14_10_23 0
X_8_14_11_21 0
X_8_14_11_22 0
X_8_14_11_23 0
X_8_14_12_21 0
X_8_14_12_22 0
X_8_14_12_23 0
X_8_14_13_21 0
X_8_14_13_22 0
X_8_14_13_23 0
X_8_15_10_21 0
X_8_15_10_22 0
X_8_15_10_23 0
X_8_15_11_21 0
X_8_15_11_22 0
X_8_15_11_23 630
X_8_15_12_21 0
X_8_15_12_22 0
X_8_15_12_23 0
X_8_15_13_21 0
X_8_15_13_22 0
X_8_15_13_23 0
X_8_16_10_21 0
X_8_16_10_22 0
X_8_16_10_23 0
X_8_16_11_21 0
X_8_16_11_22 0
X_8_16_11_23 0
X_8_16_12_21 0
X_8_16_12_22 0
X_8_16_12_23 0
X_8_16_13_21 0
X_8_16_13_22 0
X_8_16_13_23 0
X_8_17_10_21 0
X_8_17_10_22 0
X_8_17_10_23 0
X_8_17_11_21 0
X_8_17_11_22 0
X_8_17_11_23 0
X_8_17_12_21 0
X_8_17_12_22 0
X_8_17_12_23 0
X_8_17_13_21 0
X_8_17_13_22 0
X_8_17_13_23 0
X_8_18_10_21 0
X_8_18_10_22 0
X_8_18_10_23 0
X_8_18_11_21 0
X_8_18_11_22 0
X_8_18_11_23 0
X_8_18_12_21 0
X_8_18_12_22 0
X_8_18_12_23 0
X_8_18_13_21 0
X_8_18_13_22 0
X_8_18_13_23 0
X_8_19_10_21 0
X_8_19_10_22 0
X_8_19_10_23 0
X_8_19_11_21 0
X_8_19_11_22 0
X_8_19_11_23 0
X_8_19_12_21 0
X_8_19_12_22 0
X_8_19_12_23 0
X_8_19_13_21 0
X_8_19_13_22 0
X_8_19_13_23 0
X_8_20_10_21 0
X_8_20_10_22 0
X_8_20_10_23 0
X_8_20_11_21 0
X_8_20_11_22 0
X_8_20_11_23 0
X_8_20_12_21 0
X_8_20_12_22 0
X_8_20_12_23 0
X_8_20_13_21 0
X_8_20_13_22 0
X_8_20_13_23 0
X_9_14_10_21 0
X_9_14_10_22 0
X_9_14_10_23 0
X_9_14_11_21 0
X_9_14_11_22 0
X_9_14_11_23 0
X_9_14_12_21 0
X_9_14_12_22 0
X_9_14_12_23 0
X_9_14_13_21 0
X_9_14_13_22 0
X_9_14_13_23 0
X_9_15_10_21 0
X_9_15_10_22 0
X_9_15_10_23 0
X_9_15_11_21 0
X_9_15_11_22 0
X_9_15_11_23 0
X_9_15_12_21 0
X_9_15_12_22 0
X_9_15_12_23 0
X_9_15_13_21 0
X_9_15_13_22 0
X_9_15_13_23 0
X_9_16_10_21 0
X_9_16_10_22 0
X_9_16_10_23 0
X_9_16_11_21 0
X_9_16_11_22 0
X_9_16_11_23 0
X_9_16_12_21 0
X_9_16_12_22 0
X_9_16_12_23 0
X_9_16_13_21 0
X_9_16_13_22 0
X_9_16_13_23 0
X_9_17_10_21 0
X_9_17_10_22 60
X_9_17_10_23 0
X_9_17_11_21 0
X_9_17_11_22 0
X_9_17_11_23 0
X_9_17_12_21 0
X_9_17_12_22 0
X_9_17_12_23 0
X_9_17_13_21 0
X_9_17_13_22 0
X_9_17_13_23 0
X_9_18_10_21 0
X_9_18_10_22 0
X_9_18_10_23 0
X_9_18_11_21 0
X_9_18_11_22 0
X_9_18_11_23 0
X_9_18_12_21 0
X_9_18_12_22 0
X_9_18_12_23 0
X_9_18_13_21 0
X_9_18_13_22 0
X_9_18_13_23 0
X_9_19_10_21 0
X_9_19_10_22 0
X_9_19_10_23 0
X_9_19_11_21 0
X_9_19_11_22 0
X_9_19_11_23 0
X_9_19_12_21 0
X_9_19_12_22 0
X_9_19_12_23 0
X_9_19_13_21 0
X_9_19_13_22 0
X_9_19_13_23 0
X_9_20_10_21 0
X_9_20_10_22 0
X_9_20_10_23 0
X_9_20_11_21 673
X_9_20_11_22 0
X_9_20_11_23 0
X_9_20_12_21 0
X_9_20_12_22 0
X_9_20_12_23 0
X_9_20_13_21 0
X_9_20_13_22 0
X_9_20_13_23 0
